s td 10 21 30
b 1 1 2 3 4 5 6 7 8 10 11 12 13 14 16 17 19 21 22 25 27 29
b 2 1 2 3 5 6 7 8 9 10 11 12 13 14 16 17 19 21 25 27 29
b 3 1 2 3 5 6 7 8 9 10 11 13 14 16 17 19 21 25 28 29
b 4 1 2 3 5 6 7 8 9 10 11 13 14 16 19 23 25 28 29
b 5 1 2 5 6 7 9 10 11 13 14 18 23 25 28 29
b 6 1 2 3 4 6 7 8 10 11 12 14 16 17 19 21 22 27 29 30
b 7 1 3 6 7 8 10 11 12 14 16 17 21 22 26 27 29 30
b 8 1 3 7 10 11 12 15 21 26 27 29 30
b 9 1 2 3 4 5 6 8 10 11 12 13 16 17 19 20 22 25 27 29
b 10 1 2 4 5 8 10 11 16 19 20 24 25 27 29
1 2
1 6
1 9
2 3
3 4
4 5
6 7
7 8
9 10
